p cnf 576 1
576 0
w 1 0.473287
w 2 1 0
w 2 -1 1
w 3 2 0
w 3 -2 1
w 4 3 1
w 4 -3 0
w 5 4 0
w 5 -4 1
w 6 5 0.00609081
w 6 -5 0.492115
w 7 6 1
w 7 -6 0
w 8 7 0
w 8 -7 1
w 9 8 0
w 9 -8 1
w 10 9 0
w 10 -9 1
w 11 10 1
w 11 -10 0
w 12 11 1
w 12 -11 0
w 13 12 0
w 13 -12 1
w 14 13 1
w 14 -13 0
w 15 14 1
w 15 -14 0
w 16 15 0
w 16 -15 1
w 17 16 0
w 17 -16 1
w 18 17 1
w 18 -17 0
w 19 18 1
w 19 -18 0
w 20 19 0
w 20 -19 1
w 21 20 0
w 21 -20 1
w 22 21 0
w 22 -21 1
w 23 22 1
w 23 -22 0
w 24 23 0.808199
w 24 -23 0.63382
w 25 1 1
w 25 -1 0
w 26 25 2 1
w 26 25 -2 1
w 26 -25 2 1
w 26 -25 -2 0
w 27 26 3 1
w 27 26 -3 1
w 27 -26 3 1
w 27 -26 -3 0
w 28 27 4 1
w 28 27 -4 0
w 28 -27 4 1
w 28 -27 -4 1
w 29 28 5 0.35368
w 29 28 -5 0.229886
w 29 -28 5 0.00230595
w 29 -28 -5 0.199193
w 30 29 6 0.0154002
w 30 29 -6 0.536821
w 30 -29 6 0.981214
w 30 -29 -6 0.642667
w 31 30 7 0.917502
w 31 30 -7 0.450866
w 31 -30 7 0.521566
w 31 -30 -7 0.320692
w 32 31 8 1
w 32 31 -8 0
w 32 -31 8 1
w 32 -31 -8 0
w 33 32 9 0
w 33 32 -9 0
w 33 -32 9 1
w 33 -32 -9 1
w 34 33 10 0
w 34 33 -10 1
w 34 -33 10 0
w 34 -33 -10 0
w 35 34 11 1
w 35 34 -11 1
w 35 -34 11 0
w 35 -34 -11 0
w 36 35 12 0.193852
w 36 35 -12 0.451833
w 36 -35 12 0.744769
w 36 -35 -12 0.836519
w 37 36 13 0
w 37 36 -13 1
w 37 -36 13 1
w 37 -36 -13 1
w 38 37 14 0
w 38 37 -14 1
w 38 -37 14 0
w 38 -37 -14 1
w 39 38 15 0
w 39 38 -15 1
w 39 -38 15 1
w 39 -38 -15 1
w 40 39 16 0.571614
w 40 39 -16 0.990061
w 40 -39 16 0.0257844
w 40 -39 -16 0.933752
w 41 40 17 0
w 41 40 -17 1
w 41 -40 17 1
w 41 -40 -17 0
w 42 41 18 0
w 42 41 -18 0
w 42 -41 18 1
w 42 -41 -18 1
w 43 42 19 0
w 43 42 -19 1
w 43 -42 19 1
w 43 -42 -19 1
w 44 43 20 0
w 44 43 -20 0
w 44 -43 20 0
w 44 -43 -20 1
w 45 44 21 0
w 45 44 -21 0
w 45 -44 21 1
w 45 -44 -21 1
w 46 45 22 1
w 46 45 -22 0
w 46 -45 22 1
w 46 -45 -22 1
w 47 46 23 0.855292
w 47 46 -23 0.560262
w 47 -46 23 0.291104
w 47 -46 -23 0.235674
w 48 47 24 0
w 48 47 -24 0
w 48 -47 24 0
w 48 -47 -24 1
w 49 25 0
w 49 -25 1
w 50 49 26 1
w 50 49 -26 0
w 50 -49 26 1
w 50 -49 -26 1
w 51 50 27 1
w 51 50 -27 0
w 51 -50 27 1
w 51 -50 -27 1
w 52 51 28 0.708453
w 52 51 -28 0.94971
w 52 -51 28 0.512513
w 52 -51 -28 0.685391
w 53 52 29 0
w 53 52 -29 0
w 53 -52 29 0
w 53 -52 -29 1
w 54 53 30 1
w 54 53 -30 1
w 54 -53 30 0
w 54 -53 -30 1
w 55 54 31 0
w 55 54 -31 1
w 55 -54 31 1
w 55 -54 -31 1
w 56 55 32 0
w 56 55 -32 1
w 56 -55 32 1
w 56 -55 -32 1
w 57 56 33 1
w 57 56 -33 0
w 57 -56 33 0
w 57 -56 -33 0
w 58 57 34 1
w 58 57 -34 1
w 58 -57 34 0
w 58 -57 -34 1
w 59 58 35 1
w 59 58 -35 0
w 59 -58 35 1
w 59 -58 -35 1
w 60 59 36 0.457319
w 60 59 -36 0.153004
w 60 -59 36 0.197115
w 60 -59 -36 0.168751
w 61 60 37 1
w 61 60 -37 1
w 61 -60 37 1
w 61 -60 -37 0
w 62 61 38 0
w 62 61 -38 1
w 62 -61 38 1
w 62 -61 -38 1
w 63 62 39 0
w 63 62 -39 1
w 63 -62 39 0
w 63 -62 -39 0
w 64 63 40 0.446339
w 64 63 -40 0.399946
w 64 -63 40 0.600165
w 64 -63 -40 0.609841
w 65 64 41 0.475162
w 65 64 -41 0.369424
w 65 -64 41 0.207698
w 65 -64 -41 0.371325
w 66 65 42 1
w 66 65 -42 0
w 66 -65 42 1
w 66 -65 -42 1
w 67 66 43 1
w 67 66 -43 1
w 67 -66 43 0
w 67 -66 -43 0
w 68 67 44 0.814696
w 68 67 -44 0.177115
w 68 -67 44 0.853284
w 68 -67 -44 0.197458
w 69 68 45 0
w 69 68 -45 1
w 69 -68 45 0
w 69 -68 -45 0
w 70 69 46 0.790249
w 70 69 -46 0.777234
w 70 -69 46 0.383104
w 70 -69 -46 0.40009
w 71 70 47 0
w 71 70 -47 0
w 71 -70 47 1
w 71 -70 -47 1
w 72 71 48 0
w 72 71 -48 1
w 72 -71 48 1
w 72 -71 -48 0
w 73 49 1
w 73 -49 0
w 74 73 50 1
w 74 73 -50 1
w 74 -73 50 1
w 74 -73 -50 0
w 75 74 51 1
w 75 74 -51 1
w 75 -74 51 1
w 75 -74 -51 0
w 76 75 52 0.184715
w 76 75 -52 0.0336969
w 76 -75 52 0.330287
w 76 -75 -52 0.967653
w 77 76 53 0.10752
w 77 76 -53 0.350757
w 77 -76 53 0.224036
w 77 -76 -53 0.767797
w 78 77 54 0
w 78 77 -54 1
w 78 -77 54 1
w 78 -77 -54 1
w 79 78 55 0
w 79 78 -55 0
w 79 -78 55 1
w 79 -78 -55 0
w 80 79 56 0
w 80 79 -56 1
w 80 -79 56 0
w 80 -79 -56 0
w 81 80 57 1
w 81 80 -57 1
w 81 -80 57 1
w 81 -80 -57 0
w 82 81 58 0
w 82 81 -58 1
w 82 -81 58 0
w 82 -81 -58 0
w 83 82 59 0
w 83 82 -59 1
w 83 -82 59 1
w 83 -82 -59 1
w 84 83 60 0
w 84 83 -60 1
w 84 -83 60 0
w 84 -83 -60 0
w 85 84 61 0
w 85 84 -61 0
w 85 -84 61 1
w 85 -84 -61 1
w 86 85 62 1
w 86 85 -62 0
w 86 -85 62 1
w 86 -85 -62 1
w 87 86 63 0
w 87 86 -63 0
w 87 -86 63 1
w 87 -86 -63 1
w 88 87 64 0
w 88 87 -64 0
w 88 -87 64 1
w 88 -87 -64 1
w 89 88 65 0
w 89 88 -65 0
w 89 -88 65 0
w 89 -88 -65 1
w 90 89 66 0
w 90 89 -66 1
w 90 -89 66 1
w 90 -89 -66 1
w 91 90 67 1
w 91 90 -67 1
w 91 -90 67 0
w 91 -90 -67 0
w 92 91 68 0.00906551
w 92 91 -68 0.0605406
w 92 -91 68 0.587029
w 92 -91 -68 0.530239
w 93 92 69 0
w 93 92 -69 0
w 93 -92 69 1
w 93 -92 -69 0
w 94 93 70 1
w 94 93 -70 0
w 94 -93 70 1
w 94 -93 -70 0
w 95 94 71 0
w 95 94 -71 1
w 95 -94 71 1
w 95 -94 -71 0
w 96 95 72 0.996571
w 96 95 -72 0.974965
w 96 -95 72 0.318677
w 96 -95 -72 0.868079
w 97 73 1
w 97 -73 0
w 98 97 74 0.413481
w 98 97 -74 0.673913
w 98 -97 74 0.0692643
w 98 -97 -74 0.189264
w 99 98 75 0
w 99 98 -75 1
w 99 -98 75 1
w 99 -98 -75 1
w 100 99 76 0.985371
w 100 99 -76 0.373875
w 100 -99 76 0.787965
w 100 -99 -76 0.673178
w 101 100 77 0
w 101 100 -77 0
w 101 -100 77 0
w 101 -100 -77 1
w 102 101 78 0.525176
w 102 101 -78 0.280924
w 102 -101 78 0.468659
w 102 -101 -78 0.367369
w 103 102 79 0
w 103 102 -79 1
w 103 -102 79 0
w 103 -102 -79 0
w 104 103 80 0
w 104 103 -80 0
w 104 -103 80 0
w 104 -103 -80 1
w 105 104 81 0
w 105 104 -81 0
w 105 -104 81 0
w 105 -104 -81 1
w 106 105 82 0.273933
w 106 105 -82 0.13582
w 106 -105 82 0.548244
w 106 -105 -82 0.947111
w 107 106 83 0
w 107 106 -83 1
w 107 -106 83 0
w 107 -106 -83 1
w 108 107 84 0
w 108 107 -84 1
w 108 -107 84 1
w 108 -107 -84 1
w 109 108 85 0
w 109 108 -85 0
w 109 -108 85 0
w 109 -108 -85 1
w 110 109 86 0.529215
w 110 109 -86 0.469996
w 110 -109 86 0.894033
w 110 -109 -86 0.66011
w 111 110 87 0
w 111 110 -87 1
w 111 -110 87 0
w 111 -110 -87 1
w 112 111 88 0
w 112 111 -88 0
w 112 -111 88 1
w 112 -111 -88 0
w 113 112 89 1
w 113 112 -89 1
w 113 -112 89 1
w 113 -112 -89 0
w 114 113 90 0
w 114 113 -90 1
w 114 -113 90 1
w 114 -113 -90 1
w 115 114 91 0.105121
w 115 114 -91 0.738215
w 115 -114 91 0.730626
w 115 -114 -91 0.692706
w 116 115 92 0.592544
w 116 115 -92 0.221921
w 116 -115 92 0.285842
w 116 -115 -92 0.486576
w 117 116 93 0.831181
w 117 116 -93 0.542529
w 117 -116 93 0.44933
w 117 -116 -93 0.665082
w 118 117 94 1
w 118 117 -94 0
w 118 -117 94 1
w 118 -117 -94 0
w 119 118 95 0.933693
w 119 118 -95 0.0597171
w 119 -118 95 0.110582
w 119 -118 -95 0.333832
w 120 119 96 0
w 120 119 -96 1
w 120 -119 96 0
w 120 -119 -96 1
w 121 97 0
w 121 -97 1
w 122 121 98 0
w 122 121 -98 1
w 122 -121 98 1
w 122 -121 -98 0
w 123 122 99 0.605889
w 123 122 -99 0.258671
w 123 -122 99 0.381149
w 123 -122 -99 0.48792
w 124 123 100 1
w 124 123 -100 0
w 124 -123 100 0
w 124 -123 -100 0
w 125 124 101 0
w 125 124 -101 1
w 125 -124 101 1
w 125 -124 -101 1
w 126 125 102 0
w 126 125 -102 0
w 126 -125 102 1
w 126 -125 -102 1
w 127 126 103 0
w 127 126 -103 0
w 127 -126 103 1
w 127 -126 -103 1
w 128 127 104 1
w 128 127 -104 1
w 128 -127 104 1
w 128 -127 -104 0
w 129 128 105 1
w 129 128 -105 0
w 129 -128 105 1
w 129 -128 -105 0
w 130 129 106 0.802609
w 130 129 -106 0.901062
w 130 -129 106 0.699179
w 130 -129 -106 0.557543
w 131 130 107 0
w 131 130 -107 1
w 131 -130 107 0
w 131 -130 -107 0
w 132 131 108 1
w 132 131 -108 0
w 132 -131 108 0
w 132 -131 -108 0
w 133 132 109 0
w 133 132 -109 1
w 133 -132 109 0
w 133 -132 -109 1
w 134 133 110 0
w 134 133 -110 0
w 134 -133 110 1
w 134 -133 -110 1
w 135 134 111 1
w 135 134 -111 0
w 135 -134 111 1
w 135 -134 -111 0
w 136 135 112 0.495249
w 136 135 -112 0.861617
w 136 -135 112 0.699426
w 136 -135 -112 0.194428
w 137 136 113 1
w 137 136 -113 1
w 137 -136 113 0
w 137 -136 -113 1
w 138 137 114 0
w 138 137 -114 0
w 138 -137 114 1
w 138 -137 -114 1
w 139 138 115 1
w 139 138 -115 1
w 139 -138 115 0
w 139 -138 -115 1
w 140 139 116 0
w 140 139 -116 1
w 140 -139 116 1
w 140 -139 -116 1
w 141 140 117 0.524736
w 141 140 -117 0.900441
w 141 -140 117 0.582296
w 141 -140 -117 0.258056
w 142 141 118 0.38066
w 142 141 -118 0.753305
w 142 -141 118 0.821067
w 142 -141 -118 0.0800862
w 143 142 119 0.240226
w 143 142 -119 0.964678
w 143 -142 119 0.555499
w 143 -142 -119 0.744779
w 144 143 120 1
w 144 143 -120 0
w 144 -143 120 1
w 144 -143 -120 1
w 145 121 0
w 145 -121 1
w 146 145 122 1
w 146 145 -122 0
w 146 -145 122 0
w 146 -145 -122 0
w 147 146 123 1
w 147 146 -123 1
w 147 -146 123 1
w 147 -146 -123 0
w 148 147 124 0
w 148 147 -124 0
w 148 -147 124 1
w 148 -147 -124 0
w 149 148 125 0
w 149 148 -125 1
w 149 -148 125 0
w 149 -148 -125 0
w 150 149 126 1
w 150 149 -126 0
w 150 -149 126 1
w 150 -149 -126 1
w 151 150 127 0
w 151 150 -127 0
w 151 -150 127 1
w 151 -150 -127 1
w 152 151 128 0.59984
w 152 151 -128 0.458435
w 152 -151 128 0.808363
w 152 -151 -128 0.0416873
w 153 152 129 0
w 153 152 -129 1
w 153 -152 129 0
w 153 -152 -129 0
w 154 153 130 0.868788
w 154 153 -130 0.898208
w 154 -153 130 0.0818744
w 154 -153 -130 0.301927
w 155 154 131 0
w 155 154 -131 0
w 155 -154 131 1
w 155 -154 -131 0
w 156 155 132 1
w 156 155 -132 0
w 156 -155 132 1
w 156 -155 -132 0
w 157 156 133 0.62192
w 157 156 -133 0.691126
w 157 -156 133 0.116873
w 157 -156 -133 0.769668
w 158 157 134 1
w 158 157 -134 1
w 158 -157 134 0
w 158 -157 -134 0
w 159 158 135 0
w 159 158 -135 1
w 159 -158 135 1
w 159 -158 -135 0
w 160 159 136 1
w 160 159 -136 0
w 160 -159 136 0
w 160 -159 -136 1
w 161 160 137 0
w 161 160 -137 1
w 161 -160 137 1
w 161 -160 -137 0
w 162 161 138 0
w 162 161 -138 1
w 162 -161 138 1
w 162 -161 -138 1
w 163 162 139 0.504409
w 163 162 -139 0.11051
w 163 -162 139 0.673004
w 163 -162 -139 0.621283
w 164 163 140 0.140845
w 164 163 -140 0.337996
w 164 -163 140 0.108281
w 164 -163 -140 0.417049
w 165 164 141 1
w 165 164 -141 1
w 165 -164 141 0
w 165 -164 -141 1
w 166 165 142 1
w 166 165 -142 0
w 166 -165 142 0
w 166 -165 -142 0
w 167 166 143 1
w 167 166 -143 0
w 167 -166 143 0
w 167 -166 -143 0
w 168 167 144 1
w 168 167 -144 0
w 168 -167 144 0
w 168 -167 -144 1
w 169 145 0.679218
w 169 -145 0.249207
w 170 169 146 1
w 170 169 -146 0
w 170 -169 146 1
w 170 -169 -146 0
w 171 170 147 1
w 171 170 -147 0
w 171 -170 147 0
w 171 -170 -147 1
w 172 171 148 0
w 172 171 -148 0
w 172 -171 148 1
w 172 -171 -148 0
w 173 172 149 0.978625
w 173 172 -149 0.626519
w 173 -172 149 0.225924
w 173 -172 -149 0.560726
w 174 173 150 0
w 174 173 -150 0
w 174 -173 150 1
w 174 -173 -150 0
w 175 174 151 0.172532
w 175 174 -151 0.0954847
w 175 -174 151 0.838773
w 175 -174 -151 0.85175
w 176 175 152 1
w 176 175 -152 0
w 176 -175 152 0
w 176 -175 -152 0
w 177 176 153 1
w 177 176 -153 0
w 177 -176 153 0
w 177 -176 -153 1
w 178 177 154 0
w 178 177 -154 0
w 178 -177 154 1
w 178 -177 -154 1
w 179 178 155 1
w 179 178 -155 0
w 179 -178 155 0
w 179 -178 -155 1
w 180 179 156 1
w 180 179 -156 0
w 180 -179 156 0
w 180 -179 -156 0
w 181 180 157 0
w 181 180 -157 1
w 181 -180 157 1
w 181 -180 -157 0
w 182 181 158 0.217503
w 182 181 -158 0.89613
w 182 -181 158 0.192924
w 182 -181 -158 0.974912
w 183 182 159 1
w 183 182 -159 0
w 183 -182 159 1
w 183 -182 -159 0
w 184 183 160 0.91288
w 184 183 -160 0.253479
w 184 -183 160 0.777393
w 184 -183 -160 0.454278
w 185 184 161 0.573441
w 185 184 -161 0.974302
w 185 -184 161 0.882753
w 185 -184 -161 0.595412
w 186 185 162 1
w 186 185 -162 1
w 186 -185 162 0
w 186 -185 -162 1
w 187 186 163 0
w 187 186 -163 1
w 187 -186 163 0
w 187 -186 -163 1
w 188 187 164 1
w 188 187 -164 1
w 188 -187 164 0
w 188 -187 -164 1
w 189 188 165 0
w 189 188 -165 0
w 189 -188 165 0
w 189 -188 -165 1
w 190 189 166 0
w 190 189 -166 0
w 190 -189 166 1
w 190 -189 -166 0
w 191 190 167 1
w 191 190 -167 0
w 191 -190 167 0
w 191 -190 -167 0
w 192 191 168 0
w 192 191 -168 1
w 192 -191 168 1
w 192 -191 -168 0
w 193 169 0.399303
w 193 -169 0.174183
w 194 193 170 1
w 194 193 -170 0
w 194 -193 170 0
w 194 -193 -170 1
w 195 194 171 0
w 195 194 -171 0
w 195 -194 171 0
w 195 -194 -171 1
w 196 195 172 0
w 196 195 -172 0
w 196 -195 172 0
w 196 -195 -172 1
w 197 196 173 0
w 197 196 -173 1
w 197 -196 173 1
w 197 -196 -173 1
w 198 197 174 1
w 198 197 -174 0
w 198 -197 174 0
w 198 -197 -174 1
w 199 198 175 0
w 199 198 -175 0
w 199 -198 175 0
w 199 -198 -175 1
w 200 199 176 0.319479
w 200 199 -176 0.521327
w 200 -199 176 0.212255
w 200 -199 -176 0.763067
w 201 200 177 0
w 201 200 -177 0
w 201 -200 177 1
w 201 -200 -177 0
w 202 201 178 1
w 202 201 -178 1
w 202 -201 178 1
w 202 -201 -178 0
w 203 202 179 0
w 203 202 -179 0
w 203 -202 179 1
w 203 -202 -179 0
w 204 203 180 0.872979
w 204 203 -180 0.515835
w 204 -203 180 0.214563
w 204 -203 -180 0.565549
w 205 204 181 1
w 205 204 -181 0
w 205 -204 181 0
w 205 -204 -181 1
w 206 205 182 0.200291
w 206 205 -182 0.59855
w 206 -205 182 0.441174
w 206 -205 -182 0.412547
w 207 206 183 1
w 207 206 -183 1
w 207 -206 183 1
w 207 -206 -183 0
w 208 207 184 0.831986
w 208 207 -184 0.226708
w 208 -207 184 0.793735
w 208 -207 -184 0.348571
w 209 208 185 1
w 209 208 -185 0
w 209 -208 185 0
w 209 -208 -185 0
w 210 209 186 0
w 210 209 -186 1
w 210 -209 186 1
w 210 -209 -186 0
w 211 210 187 0
w 211 210 -187 1
w 211 -210 187 0
w 211 -210 -187 0
w 212 211 188 0
w 212 211 -188 1
w 212 -211 188 0
w 212 -211 -188 1
w 213 212 189 0.235949
w 213 212 -189 0.506618
w 213 -212 189 0.0389627
w 213 -212 -189 0.965216
w 214 213 190 1
w 214 213 -190 1
w 214 -213 190 0
w 214 -213 -190 0
w 215 214 191 1
w 215 214 -191 0
w 215 -214 191 1
w 215 -214 -191 1
w 216 215 192 1
w 216 215 -192 0
w 216 -215 192 0
w 216 -215 -192 1
w 217 193 0
w 217 -193 1
w 218 217 194 0
w 218 217 -194 0
w 218 -217 194 1
w 218 -217 -194 1
w 219 218 195 0.40166
w 219 218 -195 0.0895504
w 219 -218 195 0.45664
w 219 -218 -195 0.153985
w 220 219 196 0
w 220 219 -196 1
w 220 -219 196 1
w 220 -219 -196 1
w 221 220 197 0
w 221 220 -197 1
w 221 -220 197 1
w 221 -220 -197 1
w 222 221 198 0.467631
w 222 221 -198 0.0480633
w 222 -221 198 0.874213
w 222 -221 -198 0.0339405
w 223 222 199 0.393471
w 223 222 -199 0.49818
w 223 -222 199 0.606114
w 223 -222 -199 0.945137
w 224 223 200 0
w 224 223 -200 0
w 224 -223 200 0
w 224 -223 -200 1
w 225 224 201 1
w 225 224 -201 1
w 225 -224 201 0
w 225 -224 -201 1
w 226 225 202 1
w 226 225 -202 1
w 226 -225 202 1
w 226 -225 -202 0
w 227 226 203 0
w 227 226 -203 0
w 227 -226 203 0
w 227 -226 -203 1
w 228 227 204 1
w 228 227 -204 0
w 228 -227 204 1
w 228 -227 -204 1
w 229 228 205 0
w 229 228 -205 1
w 229 -228 205 0
w 229 -228 -205 1
w 230 229 206 0
w 230 229 -206 1
w 230 -229 206 0
w 230 -229 -206 1
w 231 230 207 0
w 231 230 -207 0
w 231 -230 207 1
w 231 -230 -207 0
w 232 231 208 1
w 232 231 -208 0
w 232 -231 208 1
w 232 -231 -208 1
w 233 232 209 0
w 233 232 -209 1
w 233 -232 209 1
w 233 -232 -209 1
w 234 233 210 0
w 234 233 -210 0
w 234 -233 210 0
w 234 -233 -210 1
w 235 234 211 0
w 235 234 -211 0
w 235 -234 211 1
w 235 -234 -211 1
w 236 235 212 0
w 236 235 -212 0
w 236 -235 212 1
w 236 -235 -212 1
w 237 236 213 1
w 237 236 -213 1
w 237 -236 213 0
w 237 -236 -213 0
w 238 237 214 1
w 238 237 -214 0
w 238 -237 214 1
w 238 -237 -214 0
w 239 238 215 1
w 239 238 -215 1
w 239 -238 215 1
w 239 -238 -215 0
w 240 239 216 0
w 240 239 -216 0
w 240 -239 216 0
w 240 -239 -216 1
w 241 217 0
w 241 -217 1
w 242 241 218 0
w 242 241 -218 0
w 242 -241 218 1
w 242 -241 -218 0
w 243 242 219 1
w 243 242 -219 1
w 243 -242 219 1
w 243 -242 -219 0
w 244 243 220 0
w 244 243 -220 0
w 244 -243 220 1
w 244 -243 -220 1
w 245 244 221 1
w 245 244 -221 1
w 245 -244 221 0
w 245 -244 -221 1
w 246 245 222 0.783987
w 246 245 -222 0.320107
w 246 -245 222 0.581976
w 246 -245 -222 0.775451
w 247 246 223 1
w 247 246 -223 0
w 247 -246 223 1
w 247 -246 -223 1
w 248 247 224 0.285313
w 248 247 -224 0.569634
w 248 -247 224 0.22046
w 248 -247 -224 0.450169
w 249 248 225 1
w 249 248 -225 0
w 249 -248 225 0
w 249 -248 -225 0
w 250 249 226 1
w 250 249 -226 0
w 250 -249 226 0
w 250 -249 -226 0
w 251 250 227 0
w 251 250 -227 1
w 251 -250 227 0
w 251 -250 -227 1
w 252 251 228 0
w 252 251 -228 0
w 252 -251 228 1
w 252 -251 -228 0
w 253 252 229 0.68077
w 253 252 -229 0.182292
w 253 -252 229 0.446362
w 253 -252 -229 0.416326
w 254 253 230 0
w 254 253 -230 1
w 254 -253 230 0
w 254 -253 -230 0
w 255 254 231 1
w 255 254 -231 0
w 255 -254 231 0
w 255 -254 -231 1
w 256 255 232 1
w 256 255 -232 1
w 256 -255 232 0
w 256 -255 -232 0
w 257 256 233 0.861857
w 257 256 -233 0.565677
w 257 -256 233 0.743562
w 257 -256 -233 0.304976
w 258 257 234 0.293545
w 258 257 -234 0.0682011
w 258 -257 234 0.984365
w 258 -257 -234 0.61898
w 259 258 235 0
w 259 258 -235 0
w 259 -258 235 1
w 259 -258 -235 0
w 260 259 236 0.7831
w 260 259 -236 0.654937
w 260 -259 236 0.476798
w 260 -259 -236 0.934909
w 261 260 237 1
w 261 260 -237 1
w 261 -260 237 1
w 261 -260 -237 0
w 262 261 238 1
w 262 261 -238 0
w 262 -261 238 1
w 262 -261 -238 1
w 263 262 239 1
w 263 262 -239 0
w 263 -262 239 0
w 263 -262 -239 0
w 264 263 240 1
w 264 263 -240 1
w 264 -263 240 0
w 264 -263 -240 0
w 265 241 0
w 265 -241 1
w 266 265 242 1
w 266 265 -242 0
w 266 -265 242 0
w 266 -265 -242 0
w 267 266 243 1
w 267 266 -243 0
w 267 -266 243 0
w 267 -266 -243 0
w 268 267 244 1
w 268 267 -244 0
w 268 -267 244 0
w 268 -267 -244 0
w 269 268 245 0.548121
w 269 268 -245 0.792052
w 269 -268 245 0.574965
w 269 -268 -245 0.767577
w 270 269 246 0
w 270 269 -246 1
w 270 -269 246 0
w 270 -269 -246 1
w 271 270 247 0.328638
w 271 270 -247 0.203104
w 271 -270 247 0.862701
w 271 -270 -247 0.358073
w 272 271 248 0
w 272 271 -248 0
w 272 -271 248 1
w 272 -271 -248 1
w 273 272 249 1
w 273 272 -249 0
w 273 -272 249 0
w 273 -272 -249 1
w 274 273 250 0
w 274 273 -250 1
w 274 -273 250 1
w 274 -273 -250 1
w 275 274 251 0
w 275 274 -251 1
w 275 -274 251 1
w 275 -274 -251 0
w 276 275 252 1
w 276 275 -252 0
w 276 -275 252 0
w 276 -275 -252 0
w 277 276 253 1
w 277 276 -253 1
w 277 -276 253 0
w 277 -276 -253 1
w 278 277 254 0.536459
w 278 277 -254 0.579007
w 278 -277 254 0.835897
w 278 -277 -254 0.538562
w 279 278 255 0
w 279 278 -255 1
w 279 -278 255 1
w 279 -278 -255 0
w 280 279 256 0
w 280 279 -256 1
w 280 -279 256 1
w 280 -279 -256 1
w 281 280 257 1
w 281 280 -257 1
w 281 -280 257 1
w 281 -280 -257 0
w 282 281 258 0
w 282 281 -258 1
w 282 -281 258 0
w 282 -281 -258 1
w 283 282 259 0.747827
w 283 282 -259 0.698303
w 283 -282 259 0.450473
w 283 -282 -259 0.222413
w 284 283 260 1
w 284 283 -260 0
w 284 -283 260 1
w 284 -283 -260 1
w 285 284 261 0
w 285 284 -261 1
w 285 -284 261 1
w 285 -284 -261 0
w 286 285 262 1
w 286 285 -262 0
w 286 -285 262 0
w 286 -285 -262 1
w 287 286 263 0.760853
w 287 286 -263 0.652492
w 287 -286 263 0.741162
w 287 -286 -263 0.633698
w 288 287 264 1
w 288 287 -264 0
w 288 -287 264 1
w 288 -287 -264 1
w 289 265 1
w 289 -265 0
w 290 289 266 1
w 290 289 -266 0
w 290 -289 266 1
w 290 -289 -266 1
w 291 290 267 1
w 291 290 -267 0
w 291 -290 267 0
w 291 -290 -267 1
w 292 291 268 1
w 292 291 -268 0
w 292 -291 268 1
w 292 -291 -268 0
w 293 292 269 1
w 293 292 -269 1
w 293 -292 269 1
w 293 -292 -269 0
w 294 293 270 1
w 294 293 -270 1
w 294 -293 270 1
w 294 -293 -270 0
w 295 294 271 0
w 295 294 -271 1
w 295 -294 271 1
w 295 -294 -271 1
w 296 295 272 0.294555
w 296 295 -272 0.372865
w 296 -295 272 0.345984
w 296 -295 -272 0.217744
w 297 296 273 0.50694
w 297 296 -273 0.457732
w 297 -296 273 0.722384
w 297 -296 -273 0.96533
w 298 297 274 0.863433
w 298 297 -274 0.98515
w 298 -297 274 0.277282
w 298 -297 -274 0.5459
w 299 298 275 0
w 299 298 -275 1
w 299 -298 275 1
w 299 -298 -275 1
w 300 299 276 0.447017
w 300 299 -276 0.936987
w 300 -299 276 0.487112
w 300 -299 -276 0.164436
w 301 300 277 0
w 301 300 -277 0
w 301 -300 277 1
w 301 -300 -277 1
w 302 301 278 0.977503
w 302 301 -278 0.512895
w 302 -301 278 0.333815
w 302 -301 -278 0.323488
w 303 302 279 1
w 303 302 -279 1
w 303 -302 279 1
w 303 -302 -279 0
w 304 303 280 0.94152
w 304 303 -280 0.841448
w 304 -303 280 0.780908
w 304 -303 -280 0.218802
w 305 304 281 0
w 305 304 -281 1
w 305 -304 281 0
w 305 -304 -281 1
w 306 305 282 1
w 306 305 -282 0
w 306 -305 282 1
w 306 -305 -282 1
w 307 306 283 1
w 307 306 -283 1
w 307 -306 283 0
w 307 -306 -283 1
w 308 307 284 0
w 308 307 -284 1
w 308 -307 284 0
w 308 -307 -284 1
w 309 308 285 1
w 309 308 -285 0
w 309 -308 285 0
w 309 -308 -285 1
w 310 309 286 0.213864
w 310 309 -286 0.701902
w 310 -309 286 0.651321
w 310 -309 -286 0.432667
w 311 310 287 0
w 311 310 -287 1
w 311 -310 287 1
w 311 -310 -287 0
w 312 311 288 0
w 312 311 -288 0
w 312 -311 288 0
w 312 -311 -288 1
w 313 289 0
w 313 -289 1
w 314 313 290 1
w 314 313 -290 1
w 314 -313 290 0
w 314 -313 -290 0
w 315 314 291 1
w 315 314 -291 0
w 315 -314 291 0
w 315 -314 -291 1
w 316 315 292 0.0118646
w 316 315 -292 0.995364
w 316 -315 292 0.697326
w 316 -315 -292 0.882278
w 317 316 293 0
w 317 316 -293 0
w 317 -316 293 1
w 317 -316 -293 0
w 318 317 294 1
w 318 317 -294 0
w 318 -317 294 1
w 318 -317 -294 1
w 319 318 295 0.416225
w 319 318 -295 0.906329
w 319 -318 295 0.619925
w 319 -318 -295 0.245233
w 320 319 296 1
w 320 319 -296 0
w 320 -319 296 1
w 320 -319 -296 1
w 321 320 297 0
w 321 320 -297 1
w 321 -320 297 0
w 321 -320 -297 1
w 322 321 298 0.659534
w 322 321 -298 0.994737
w 322 -321 298 0.470815
w 322 -321 -298 0.541812
w 323 322 299 1
w 323 322 -299 0
w 323 -322 299 0
w 323 -322 -299 0
w 324 323 300 1
w 324 323 -300 1
w 324 -323 300 1
w 324 -323 -300 0
w 325 324 301 0
w 325 324 -301 0
w 325 -324 301 1
w 325 -324 -301 0
w 326 325 302 0
w 326 325 -302 1
w 326 -325 302 0
w 326 -325 -302 1
w 327 326 303 0
w 327 326 -303 1
w 327 -326 303 1
w 327 -326 -303 0
w 328 327 304 1
w 328 327 -304 1
w 328 -327 304 0
w 328 -327 -304 1
w 329 328 305 0.584264
w 329 328 -305 0.305742
w 329 -328 305 0.874271
w 329 -328 -305 0.430125
w 330 329 306 1
w 330 329 -306 1
w 330 -329 306 0
w 330 -329 -306 1
w 331 330 307 1
w 331 330 -307 1
w 331 -330 307 1
w 331 -330 -307 0
w 332 331 308 0.252752
w 332 331 -308 0.603757
w 332 -331 308 0.0990998
w 332 -331 -308 0.492136
w 333 332 309 0
w 333 332 -309 1
w 333 -332 309 1
w 333 -332 -309 1
w 334 333 310 0
w 334 333 -310 0
w 334 -333 310 1
w 334 -333 -310 0
w 335 334 311 0.0954005
w 335 334 -311 0.449902
w 335 -334 311 0.251599
w 335 -334 -311 0.969671
w 336 335 312 0.915864
w 336 335 -312 0.0992497
w 336 -335 312 0.373748
w 336 -335 -312 0.711567
w 337 313 1
w 337 -313 0
w 338 337 314 1
w 338 337 -314 1
w 338 -337 314 0
w 338 -337 -314 0
w 339 338 315 0
w 339 338 -315 0
w 339 -338 315 1
w 339 -338 -315 0
w 340 339 316 0.64563
w 340 339 -316 0.270228
w 340 -339 316 0.342832
w 340 -339 -316 0.685123
w 341 340 317 0.85299
w 341 340 -317 0.981664
w 341 -340 317 0.621206
w 341 -340 -317 0.798846
w 342 341 318 0
w 342 341 -318 1
w 342 -341 318 1
w 342 -341 -318 1
w 343 342 319 0.145985
w 343 342 -319 0.324883
w 343 -342 319 0.677876
w 343 -342 -319 0.455591
w 344 343 320 0.399747
w 344 343 -320 0.973667
w 344 -343 320 0.211565
w 344 -343 -320 0.252848
w 345 344 321 0
w 345 344 -321 0
w 345 -344 321 1
w 345 -344 -321 1
w 346 345 322 0.559485
w 346 345 -322 0.77236
w 346 -345 322 0.150384
w 346 -345 -322 0.902317
w 347 346 323 0
w 347 346 -323 1
w 347 -346 323 1
w 347 -346 -323 1
w 348 347 324 0
w 348 347 -324 1
w 348 -347 324 1
w 348 -347 -324 1
w 349 348 325 1
w 349 348 -325 1
w 349 -348 325 0
w 349 -348 -325 1
w 350 349 326 1
w 350 349 -326 0
w 350 -349 326 0
w 350 -349 -326 1
w 351 350 327 0.456436
w 351 350 -327 0.761731
w 351 -350 327 0.611086
w 351 -350 -327 0.218363
w 352 351 328 0.491242
w 352 351 -328 0.777849
w 352 -351 328 0.660821
w 352 -351 -328 0.641626
w 353 352 329 0
w 353 352 -329 1
w 353 -352 329 1
w 353 -352 -329 1
w 354 353 330 1
w 354 353 -330 0
w 354 -353 330 1
w 354 -353 -330 1
w 355 354 331 0
w 355 354 -331 0
w 355 -354 331 1
w 355 -354 -331 1
w 356 355 332 0
w 356 355 -332 1
w 356 -355 332 0
w 356 -355 -332 0
w 357 356 333 0.10469
w 357 356 -333 0.324156
w 357 -356 333 0.574911
w 357 -356 -333 0.323054
w 358 357 334 1
w 358 357 -334 0
w 358 -357 334 1
w 358 -357 -334 0
w 359 358 335 0.991744
w 359 358 -335 0.255357
w 359 -358 335 0.216541
w 359 -358 -335 0.549196
w 360 359 336 0
w 360 359 -336 0
w 360 -359 336 1
w 360 -359 -336 1
w 361 337 1
w 361 -337 0
w 362 361 338 0.605011
w 362 361 -338 0.322193
w 362 -361 338 0.379439
w 362 -361 -338 0.115076
w 363 362 339 1
w 363 362 -339 0
w 363 -362 339 1
w 363 -362 -339 1
w 364 363 340 0.93255
w 364 363 -340 0.980622
w 364 -363 340 0.191073
w 364 -363 -340 0.145168
w 365 364 341 0
w 365 364 -341 0
w 365 -364 341 0
w 365 -364 -341 1
w 366 365 342 0
w 366 365 -342 0
w 366 -365 342 1
w 366 -365 -342 0
w 367 366 343 0
w 367 366 -343 1
w 367 -366 343 1
w 367 -366 -343 0
w 368 367 344 0
w 368 367 -344 1
w 368 -367 344 0
w 368 -367 -344 0
w 369 368 345 0
w 369 368 -345 0
w 369 -368 345 1
w 369 -368 -345 0
w 370 369 346 1
w 370 369 -346 0
w 370 -369 346 1
w 370 -369 -346 1
w 371 370 347 1
w 371 370 -347 0
w 371 -370 347 1
w 371 -370 -347 1
w 372 371 348 1
w 372 371 -348 1
w 372 -371 348 1
w 372 -371 -348 0
w 373 372 349 0
w 373 372 -349 1
w 373 -372 349 0
w 373 -372 -349 0
w 374 373 350 0
w 374 373 -350 0
w 374 -373 350 1
w 374 -373 -350 0
w 375 374 351 0
w 375 374 -351 0
w 375 -374 351 1
w 375 -374 -351 0
w 376 375 352 1
w 376 375 -352 1
w 376 -375 352 1
w 376 -375 -352 0
w 377 376 353 0
w 377 376 -353 0
w 377 -376 353 1
w 377 -376 -353 1
w 378 377 354 0
w 378 377 -354 1
w 378 -377 354 0
w 378 -377 -354 0
w 379 378 355 0
w 379 378 -355 1
w 379 -378 355 0
w 379 -378 -355 0
w 380 379 356 0
w 380 379 -356 1
w 380 -379 356 0
w 380 -379 -356 0
w 381 380 357 1
w 381 380 -357 0
w 381 -380 357 1
w 381 -380 -357 0
w 382 381 358 0
w 382 381 -358 1
w 382 -381 358 0
w 382 -381 -358 0
w 383 382 359 0
w 383 382 -359 1
w 383 -382 359 1
w 383 -382 -359 1
w 384 383 360 0
w 384 383 -360 1
w 384 -383 360 0
w 384 -383 -360 1
w 385 361 0.281513
w 385 -361 0.735149
w 386 385 362 0
w 386 385 -362 1
w 386 -385 362 1
w 386 -385 -362 1
w 387 386 363 0
w 387 386 -363 0
w 387 -386 363 0
w 387 -386 -363 1
w 388 387 364 0
w 388 387 -364 1
w 388 -387 364 0
w 388 -387 -364 0
w 389 388 365 0
w 389 388 -365 1
w 389 -388 365 1
w 389 -388 -365 0
w 390 389 366 0.138585
w 390 389 -366 0.742888
w 390 -389 366 0.480297
w 390 -389 -366 0.22981
w 391 390 367 1
w 391 390 -367 0
w 391 -390 367 1
w 391 -390 -367 1
w 392 391 368 0.926261
w 392 391 -368 0.0173858
w 392 -391 368 0.31781
w 392 -391 -368 0.350062
w 393 392 369 1
w 393 392 -369 0
w 393 -392 369 1
w 393 -392 -369 0
w 394 393 370 1
w 394 393 -370 0
w 394 -393 370 0
w 394 -393 -370 1
w 395 394 371 1
w 395 394 -371 1
w 395 -394 371 1
w 395 -394 -371 0
w 396 395 372 0
w 396 395 -372 1
w 396 -395 372 1
w 396 -395 -372 0
w 397 396 373 0.74271
w 397 396 -373 0.23922
w 397 -396 373 0.194983
w 397 -396 -373 0.226764
w 398 397 374 0
w 398 397 -374 0
w 398 -397 374 1
w 398 -397 -374 0
w 399 398 375 0
w 399 398 -375 0
w 399 -398 375 0
w 399 -398 -375 1
w 400 399 376 0.745438
w 400 399 -376 0.698487
w 400 -399 376 0.882481
w 400 -399 -376 0.513407
w 401 400 377 0
w 401 400 -377 1
w 401 -400 377 1
w 401 -400 -377 0
w 402 401 378 1
w 402 401 -378 0
w 402 -401 378 0
w 402 -401 -378 1
w 403 402 379 0
w 403 402 -379 1
w 403 -402 379 0
w 403 -402 -379 1
w 404 403 380 1
w 404 403 -380 0
w 404 -403 380 0
w 404 -403 -380 0
w 405 404 381 0
w 405 404 -381 0
w 405 -404 381 0
w 405 -404 -381 1
w 406 405 382 1
w 406 405 -382 1
w 406 -405 382 0
w 406 -405 -382 1
w 407 406 383 1
w 407 406 -383 0
w 407 -406 383 1
w 407 -406 -383 1
w 408 407 384 0.908911
w 408 407 -384 0.549427
w 408 -407 384 0.665341
w 408 -407 -384 0.457154
w 409 385 0.533731
w 409 -385 0.748106
w 410 409 386 1
w 410 409 -386 1
w 410 -409 386 0
w 410 -409 -386 1
w 411 410 387 0.143269
w 411 410 -387 0.507545
w 411 -410 387 0.110395
w 411 -410 -387 0.140868
w 412 411 388 0
w 412 411 -388 1
w 412 -411 388 1
w 412 -411 -388 0
w 413 412 389 1
w 413 412 -389 1
w 413 -412 389 0
w 413 -412 -389 0
w 414 413 390 1
w 414 413 -390 1
w 414 -413 390 0
w 414 -413 -390 0
w 415 414 391 0
w 415 414 -391 1
w 415 -414 391 0
w 415 -414 -391 0
w 416 415 392 1
w 416 415 -392 0
w 416 -415 392 1
w 416 -415 -392 0
w 417 416 393 0
w 417 416 -393 0
w 417 -416 393 1
w 417 -416 -393 0
w 418 417 394 0
w 418 417 -394 1
w 418 -417 394 0
w 418 -417 -394 1
w 419 418 395 1
w 419 418 -395 0
w 419 -418 395 0
w 419 -418 -395 0
w 420 419 396 0.68613
w 420 419 -396 0.45789
w 420 -419 396 0.878573
w 420 -419 -396 0.552481
w 421 420 397 1
w 421 420 -397 0
w 421 -420 397 1
w 421 -420 -397 1
w 422 421 398 1
w 422 421 -398 0
w 422 -421 398 0
w 422 -421 -398 0
w 423 422 399 0
w 423 422 -399 0
w 423 -422 399 1
w 423 -422 -399 1
w 424 423 400 0.773436
w 424 423 -400 0.276707
w 424 -423 400 0.577288
w 424 -423 -400 0.758031
w 425 424 401 1
w 425 424 -401 0
w 425 -424 401 1
w 425 -424 -401 1
w 426 425 402 0
w 426 425 -402 0
w 426 -425 402 1
w 426 -425 -402 0
w 427 426 403 1
w 427 426 -403 1
w 427 -426 403 1
w 427 -426 -403 0
w 428 427 404 0.731402
w 428 427 -404 0.557352
w 428 -427 404 0.209307
w 428 -427 -404 0.543527
w 429 428 405 1
w 429 428 -405 0
w 429 -428 405 1
w 429 -428 -405 0
w 430 429 406 0
w 430 429 -406 0
w 430 -429 406 1
w 430 -429 -406 0
w 431 430 407 0
w 431 430 -407 1
w 431 -430 407 1
w 431 -430 -407 1
w 432 431 408 1
w 432 431 -408 1
w 432 -431 408 0
w 432 -431 -408 0
w 433 409 0.129716
w 433 -409 0.905764
w 434 433 410 1
w 434 433 -410 1
w 434 -433 410 0
w 434 -433 -410 1
w 435 434 411 0
w 435 434 -411 1
w 435 -434 411 0
w 435 -434 -411 0
w 436 435 412 0
w 436 435 -412 0
w 436 -435 412 1
w 436 -435 -412 1
w 437 436 413 0
w 437 436 -413 0
w 437 -436 413 0
w 437 -436 -413 1
w 438 437 414 0.831836
w 438 437 -414 0.58733
w 438 -437 414 0.816893
w 438 -437 -414 0.647212
w 439 438 415 0
w 439 438 -415 1
w 439 -438 415 0
w 439 -438 -415 0
w 440 439 416 0
w 440 439 -416 1
w 440 -439 416 0
w 440 -439 -416 1
w 441 440 417 0
w 441 440 -417 1
w 441 -440 417 1
w 441 -440 -417 0
w 442 441 418 0
w 442 441 -418 1
w 442 -441 418 0
w 442 -441 -418 0
w 443 442 419 0
w 443 442 -419 0
w 443 -442 419 0
w 443 -442 -419 1
w 444 443 420 0
w 444 443 -420 1
w 444 -443 420 1
w 444 -443 -420 1
w 445 444 421 0.00582332
w 445 444 -421 0.182961
w 445 -444 421 0.127759
w 445 -444 -421 0.342545
w 446 445 422 1
w 446 445 -422 1
w 446 -445 422 0
w 446 -445 -422 1
w 447 446 423 1
w 447 446 -423 0
w 447 -446 423 0
w 447 -446 -423 1
w 448 447 424 1
w 448 447 -424 0
w 448 -447 424 1
w 448 -447 -424 1
w 449 448 425 1
w 449 448 -425 1
w 449 -448 425 1
w 449 -448 -425 0
w 450 449 426 0.939809
w 450 449 -426 0.918475
w 450 -449 426 0.232305
w 450 -449 -426 0.299196
w 451 450 427 0.0825449
w 451 450 -427 0.305019
w 451 -450 427 0.935265
w 451 -450 -427 0.210304
w 452 451 428 1
w 452 451 -428 1
w 452 -451 428 0
w 452 -451 -428 1
w 453 452 429 0
w 453 452 -429 0
w 453 -452 429 1
w 453 -452 -429 0
w 454 453 430 0
w 454 453 -430 0
w 454 -453 430 0
w 454 -453 -430 1
w 455 454 431 0
w 455 454 -431 0
w 455 -454 431 1
w 455 -454 -431 1
w 456 455 432 1
w 456 455 -432 0
w 456 -455 432 0
w 456 -455 -432 1
w 457 433 0
w 457 -433 1
w 458 457 434 0.618571
w 458 457 -434 0.80867
w 458 -457 434 0.0424565
w 458 -457 -434 0.266135
w 459 458 435 0.298189
w 459 458 -435 0.095785
w 459 -458 435 0.913617
w 459 -458 -435 0.714524
w 460 459 436 1
w 460 459 -436 1
w 460 -459 436 0
w 460 -459 -436 1
w 461 460 437 0
w 461 460 -437 1
w 461 -460 437 0
w 461 -460 -437 1
w 462 461 438 0
w 462 461 -438 0
w 462 -461 438 1
w 462 -461 -438 1
w 463 462 439 1
w 463 462 -439 1
w 463 -462 439 0
w 463 -462 -439 1
w 464 463 440 0.155383
w 464 463 -440 0.687022
w 464 -463 440 0.0387156
w 464 -463 -440 0.421518
w 465 464 441 1
w 465 464 -441 1
w 465 -464 441 0
w 465 -464 -441 0
w 466 465 442 1
w 466 465 -442 1
w 466 -465 442 1
w 466 -465 -442 0
w 467 466 443 0.740357
w 467 466 -443 0.684905
w 467 -466 443 0.915303
w 467 -466 -443 0.874714
w 468 467 444 1
w 468 467 -444 0
w 468 -467 444 1
w 468 -467 -444 1
w 469 468 445 0
w 469 468 -445 0
w 469 -468 445 1
w 469 -468 -445 0
w 470 469 446 1
w 470 469 -446 1
w 470 -469 446 0
w 470 -469 -446 1
w 471 470 447 0
w 471 470 -447 1
w 471 -470 447 0
w 471 -470 -447 0
w 472 471 448 0
w 472 471 -448 1
w 472 -471 448 1
w 472 -471 -448 1
w 473 472 449 0
w 473 472 -449 1
w 473 -472 449 0
w 473 -472 -449 0
w 474 473 450 0.508875
w 474 473 -450 0.942927
w 474 -473 450 0.899748
w 474 -473 -450 0.758848
w 475 474 451 1
w 475 474 -451 1
w 475 -474 451 0
w 475 -474 -451 0
w 476 475 452 1
w 476 475 -452 0
w 476 -475 452 1
w 476 -475 -452 0
w 477 476 453 1
w 477 476 -453 0
w 477 -476 453 0
w 477 -476 -453 0
w 478 477 454 0
w 478 477 -454 1
w 478 -477 454 1
w 478 -477 -454 1
w 479 478 455 0.170928
w 479 478 -455 0.435876
w 479 -478 455 0.108038
w 479 -478 -455 0.301356
w 480 479 456 0
w 480 479 -456 1
w 480 -479 456 1
w 480 -479 -456 1
w 481 457 0
w 481 -457 1
w 482 481 458 0
w 482 481 -458 1
w 482 -481 458 0
w 482 -481 -458 0
w 483 482 459 1
w 483 482 -459 0
w 483 -482 459 0
w 483 -482 -459 0
w 484 483 460 0
w 484 483 -460 0
w 484 -483 460 1
w 484 -483 -460 1
w 485 484 461 0.814033
w 485 484 -461 0.299239
w 485 -484 461 0.860108
w 485 -484 -461 0.984961
w 486 485 462 1
w 486 485 -462 0
w 486 -485 462 0
w 486 -485 -462 1
w 487 486 463 1
w 487 486 -463 0
w 487 -486 463 0
w 487 -486 -463 0
w 488 487 464 0
w 488 487 -464 1
w 488 -487 464 1
w 488 -487 -464 0
w 489 488 465 1
w 489 488 -465 0
w 489 -488 465 0
w 489 -488 -465 1
w 490 489 466 1
w 490 489 -466 0
w 490 -489 466 0
w 490 -489 -466 1
w 491 490 467 0
w 491 490 -467 0
w 491 -490 467 1
w 491 -490 -467 1
w 492 491 468 0
w 492 491 -468 1
w 492 -491 468 1
w 492 -491 -468 1
w 493 492 469 0
w 493 492 -469 1
w 493 -492 469 1
w 493 -492 -469 1
w 494 493 470 0.236656
w 494 493 -470 0.470849
w 494 -493 470 0.810715
w 494 -493 -470 0.600703
w 495 494 471 0.952441
w 495 494 -471 0.892828
w 495 -494 471 0.218635
w 495 -494 -471 0.529688
w 496 495 472 0
w 496 495 -472 1
w 496 -495 472 1
w 496 -495 -472 1
w 497 496 473 1
w 497 496 -473 1
w 497 -496 473 0
w 497 -496 -473 1
w 498 497 474 0.164517
w 498 497 -474 0.134437
w 498 -497 474 0.0337365
w 498 -497 -474 0.266743
w 499 498 475 0.26731
w 499 498 -475 0.313774
w 499 -498 475 0.29859
w 499 -498 -475 0.851234
w 500 499 476 1
w 500 499 -476 1
w 500 -499 476 0
w 500 -499 -476 1
w 501 500 477 0
w 501 500 -477 0
w 501 -500 477 0
w 501 -500 -477 1
w 502 501 478 1
w 502 501 -478 1
w 502 -501 478 1
w 502 -501 -478 0
w 503 502 479 0
w 503 502 -479 1
w 503 -502 479 1
w 503 -502 -479 1
w 504 503 480 1
w 504 503 -480 0
w 504 -503 480 1
w 504 -503 -480 0
w 505 481 0.524016
w 505 -481 0.557059
w 506 505 482 1
w 506 505 -482 1
w 506 -505 482 0
w 506 -505 -482 0
w 507 506 483 0
w 507 506 -483 0
w 507 -506 483 1
w 507 -506 -483 0
w 508 507 484 0
w 508 507 -484 0
w 508 -507 484 1
w 508 -507 -484 1
w 509 508 485 0
w 509 508 -485 1
w 509 -508 485 1
w 509 -508 -485 1
w 510 509 486 0
w 510 509 -486 1
w 510 -509 486 0
w 510 -509 -486 0
w 511 510 487 0
w 511 510 -487 0
w 511 -510 487 1
w 511 -510 -487 0
w 512 511 488 0
w 512 511 -488 1
w 512 -511 488 0
w 512 -511 -488 1
w 513 512 489 0
w 513 512 -489 1
w 513 -512 489 1
w 513 -512 -489 0
w 514 513 490 1
w 514 513 -490 0
w 514 -513 490 1
w 514 -513 -490 1
w 515 514 491 0.437308
w 515 514 -491 0.510692
w 515 -514 491 0.476194
w 515 -514 -491 0.931002
w 516 515 492 0
w 516 515 -492 1
w 516 -515 492 1
w 516 -515 -492 0
w 517 516 493 1
w 517 516 -493 1
w 517 -516 493 0
w 517 -516 -493 1
w 518 517 494 0
w 518 517 -494 1
w 518 -517 494 0
w 518 -517 -494 0
w 519 518 495 1
w 519 518 -495 0
w 519 -518 495 1
w 519 -518 -495 0
w 520 519 496 0.59091
w 520 519 -496 0.179264
w 520 -519 496 0.324785
w 520 -519 -496 0.399026
w 521 520 497 0
w 521 520 -497 1
w 521 -520 497 1
w 521 -520 -497 1
w 522 521 498 0.693169
w 522 521 -498 0.248397
w 522 -521 498 0.649425
w 522 -521 -498 0.699891
w 523 522 499 0
w 523 522 -499 1
w 523 -522 499 1
w 523 -522 -499 0
w 524 523 500 0
w 524 523 -500 0
w 524 -523 500 1
w 524 -523 -500 0
w 525 524 501 0
w 525 524 -501 1
w 525 -524 501 0
w 525 -524 -501 1
w 526 525 502 0
w 526 525 -502 0
w 526 -525 502 0
w 526 -525 -502 1
w 527 526 503 1
w 527 526 -503 0
w 527 -526 503 1
w 527 -526 -503 0
w 528 527 504 1
w 528 527 -504 0
w 528 -527 504 1
w 528 -527 -504 1
w 529 505 1
w 529 -505 0
w 530 529 506 1
w 530 529 -506 0
w 530 -529 506 1
w 530 -529 -506 1
w 531 530 507 1
w 531 530 -507 0
w 531 -530 507 0
w 531 -530 -507 1
w 532 531 508 1
w 532 531 -508 1
w 532 -531 508 0
w 532 -531 -508 0
w 533 532 509 0
w 533 532 -509 0
w 533 -532 509 1
w 533 -532 -509 1
w 534 533 510 1
w 534 533 -510 0
w 534 -533 510 0
w 534 -533 -510 1
w 535 534 511 0
w 535 534 -511 0
w 535 -534 511 1
w 535 -534 -511 0
w 536 535 512 0.648779
w 536 535 -512 0.00393934
w 536 -535 512 0.268715
w 536 -535 -512 0.719087
w 537 536 513 1
w 537 536 -513 0
w 537 -536 513 1
w 537 -536 -513 1
w 538 537 514 1
w 538 537 -514 0
w 538 -537 514 1
w 538 -537 -514 1
w 539 538 515 0.53224
w 539 538 -515 0.536208
w 539 -538 515 0.214286
w 539 -538 -515 0.783905
w 540 539 516 0
w 540 539 -516 0
w 540 -539 516 1
w 540 -539 -516 0
w 541 540 517 0.383704
w 541 540 -517 0.0275404
w 541 -540 517 0.66453
w 541 -540 -517 0.983424
w 542 541 518 0
w 542 541 -518 0
w 542 -541 518 0
w 542 -541 -518 1
w 543 542 519 1
w 543 542 -519 0
w 543 -542 519 0
w 543 -542 -519 0
w 544 543 520 0
w 544 543 -520 1
w 544 -543 520 1
w 544 -543 -520 1
w 545 544 521 1
w 545 544 -521 0
w 545 -544 521 0
w 545 -544 -521 1
w 546 545 522 1
w 546 545 -522 1
w 546 -545 522 0
w 546 -545 -522 1
w 547 546 523 1
w 547 546 -523 0
w 547 -546 523 0
w 547 -546 -523 0
w 548 547 524 1
w 548 547 -524 0
w 548 -547 524 1
w 548 -547 -524 1
w 549 548 525 0
w 549 548 -525 0
w 549 -548 525 1
w 549 -548 -525 0
w 550 549 526 0.570815
w 550 549 -526 0.527608
w 550 -549 526 0.262974
w 550 -549 -526 0.928716
w 551 550 527 0.927179
w 551 550 -527 0.0464681
w 551 -550 527 0.687926
w 551 -550 -527 0.127592
w 552 551 528 0
w 552 551 -528 1
w 552 -551 528 1
w 552 -551 -528 0
w 553 529 0.415865
w 553 -529 0.608791
w 554 553 530 1
w 554 553 -530 0
w 554 -553 530 0
w 554 -553 -530 0
w 555 554 531 0.636319
w 555 554 -531 0.605901
w 555 -554 531 0.483299
w 555 -554 -531 0.284358
w 556 555 532 0.920487
w 556 555 -532 0.675149
w 556 -555 532 0.872414
w 556 -555 -532 0.491302
w 557 556 533 0
w 557 556 -533 0
w 557 -556 533 0
w 557 -556 -533 1
w 558 557 534 1
w 558 557 -534 1
w 558 -557 534 0
w 558 -557 -534 1
w 559 558 535 0.777731
w 559 558 -535 0.049701
w 559 -558 535 0.88054
w 559 -558 -535 0.193596
w 560 559 536 1
w 560 559 -536 0
w 560 -559 536 0
w 560 -559 -536 0
w 561 560 537 0
w 561 560 -537 1
w 561 -560 537 0
w 561 -560 -537 1
w 562 561 538 0
w 562 561 -538 1
w 562 -561 538 0
w 562 -561 -538 0
w 563 562 539 0
w 563 562 -539 1
w 563 -562 539 0
w 563 -562 -539 0
w 564 563 540 1
w 564 563 -540 1
w 564 -563 540 1
w 564 -563 -540 0
w 565 564 541 1
w 565 564 -541 0
w 565 -564 541 1
w 565 -564 -541 1
w 566 565 542 1
w 566 565 -542 0
w 566 -565 542 0
w 566 -565 -542 1
w 567 566 543 0
w 567 566 -543 1
w 567 -566 543 1
w 567 -566 -543 1
w 568 567 544 0
w 568 567 -544 1
w 568 -567 544 1
w 568 -567 -544 1
w 569 568 545 1
w 569 568 -545 0
w 569 -568 545 1
w 569 -568 -545 0
w 570 569 546 0
w 570 569 -546 1
w 570 -569 546 0
w 570 -569 -546 0
w 571 570 547 1
w 571 570 -547 0
w 571 -570 547 1
w 571 -570 -547 0
w 572 571 548 0.569398
w 572 571 -548 0.950684
w 572 -571 548 0.710196
w 572 -571 -548 0.632607
w 573 572 549 1
w 573 572 -549 1
w 573 -572 549 0
w 573 -572 -549 1
w 574 573 550 1
w 574 573 -550 0
w 574 -573 550 1
w 574 -573 -550 0
w 575 574 551 1
w 575 574 -551 1
w 575 -574 551 0
w 575 -574 -551 0
w 576 575 552 1
w 576 575 -552 1
w 576 -575 552 1
w 576 -575 -552 0